424
25.832 25.832 25.832 90 90 90
Zn 7.5791088 5.3368912 5.3368912
Zn 20.4951088 7.5791088 5.3368912
Zn 18.2528912 20.4951088 5.3368912
Zn 5.3368912 18.2528912 5.3368912
Zn 7.5791088 20.4951088 20.4951088
Zn 20.4951088 18.2528912 20.4951088
Zn 18.2528912 5.3368912 20.4951088
Zn 5.3368912 7.5791088 20.4951088
Zn 5.3368912 7.5791088 5.3368912
Zn 5.3368912 20.4951088 7.5791088
Zn 5.3368912 18.2528912 20.4951088
Zn 5.3368912 5.3368912 18.2528912
Zn 20.4951088 7.5791088 20.4951088
Zn 20.4951088 20.4951088 18.2528912
Zn 20.4951088 18.2528912 5.3368912
Zn 20.4951088 5.3368912 7.5791088
Zn 18.2528912 5.3368912 5.3368912
Zn 5.3368912 5.3368912 7.5791088
Zn 7.5791088 5.3368912 20.4951088
Zn 20.4951088 5.3368912 18.2528912
Zn 18.2528912 20.4951088 20.4951088
Zn 5.3368912 20.4951088 18.2528912
Zn 7.5791088 20.4951088 5.3368912
Zn 20.4951088 20.4951088 7.5791088
Zn 7.5791088 18.2528912 18.2528912
Zn 18.2528912 7.5791088 18.2528912
Zn 7.5791088 7.5791088 7.5791088
Zn 18.2528912 18.2528912 7.5791088
Zn 18.2528912 18.2528912 18.2528912
Zn 7.5791088 18.2528912 7.5791088
Zn 18.2528912 7.5791088 7.5791088
Zn 7.5791088 7.5791088 18.2528912
O  6.458 6.458 6.458
O  19.374 6.458 6.458
O  19.374 19.374 6.458
O  6.458 19.374 6.458
O  6.458 19.374 19.374
O  19.374 19.374 19.374
O  19.374 6.458 19.374
O  6.458 6.458 19.374
O  7.2820408 5.6339592 3.461488
O  20.1980408 7.2820408 3.461488
O  18.5499592 20.1980408 3.461488
O  5.6339592 18.5499592 3.461488
O  7.2820408 20.1980408 22.370512
O  20.1980408 18.5499592 22.370512
O  18.5499592 5.6339592 22.370512
O  5.6339592 7.2820408 22.370512
O  3.461488 7.2820408 5.6339592
O  3.461488 20.1980408 7.2820408
O  3.461488 18.5499592 20.1980408
O  3.461488 5.6339592 18.5499592
O  22.370512 7.2820408 20.1980408
O  22.370512 20.1980408 18.5499592
O  22.370512 18.5499592 5.6339592
O  22.370512 5.6339592 7.2820408
O  18.5499592 3.461488 5.6339592
O  5.6339592 3.461488 7.2820408
O  7.2820408 3.461488 20.1980408
O  20.1980408 3.461488 18.5499592
O  18.5499592 22.370512 20.1980408
O  5.6339592 22.370512 18.5499592
O  7.2820408 22.370512 5.6339592
O  20.1980408 22.370512 7.2820408
O  18.5499592 20.1980408 22.370512
O  5.6339592 18.5499592 22.370512
O  7.2820408 5.6339592 22.370512
O  20.1980408 7.2820408 22.370512
O  18.5499592 5.6339592 3.461488
O  5.6339592 7.2820408 3.461488
O  7.2820408 20.1980408 3.461488
O  20.1980408 18.5499592 3.461488
O  22.370512 18.5499592 20.1980408
O  22.370512 5.6339592 18.5499592
O  22.370512 7.2820408 5.6339592
O  22.370512 20.1980408 7.2820408
O  3.461488 18.5499592 5.6339592
O  3.461488 5.6339592 7.2820408
O  3.461488 7.2820408 20.1980408
O  3.461488 20.1980408 18.5499592
O  7.2820408 22.370512 20.1980408
O  20.1980408 22.370512 18.5499592
O  18.5499592 22.370512 5.6339592
O  5.6339592 22.370512 7.2820408
O  7.2820408 3.461488 5.6339592
O  20.1980408 3.461488 7.2820408
O  18.5499592 3.461488 20.1980408
O  5.6339592 3.461488 18.5499592
O  7.2820408 18.5499592 16.377488
O  20.1980408 20.1980408 16.377488
O  18.5499592 7.2820408 16.377488
O  5.6339592 5.6339592 16.377488
O  7.2820408 7.2820408 9.454512
O  20.1980408 5.6339592 9.454512
O  18.5499592 18.5499592 9.454512
O  5.6339592 20.1980408 9.454512
O  18.5499592 16.377488 18.5499592
O  5.6339592 16.377488 20.1980408
O  7.2820408 16.377488 7.2820408
O  20.1980408 16.377488 5.6339592
O  18.5499592 9.454512 7.2820408
O  5.6339592 9.454512 5.6339592
O  7.2820408 9.454512 18.5499592
O  20.1980408 9.454512 20.1980408
O  18.5499592 7.2820408 9.454512
O  5.6339592 5.6339592 9.454512
O  7.2820408 18.5499592 9.454512
O  20.1980408 20.1980408 9.454512
O  18.5499592 18.5499592 16.377488
O  5.6339592 20.1980408 16.377488
O  7.2820408 7.2820408 16.377488
O  20.1980408 5.6339592 16.377488
O  7.2820408 9.454512 7.2820408
O  20.1980408 9.454512 5.6339592
O  18.5499592 9.454512 18.5499592
O  5.6339592 9.454512 20.1980408
O  7.2820408 16.377488 18.5499592
O  20.1980408 16.377488 20.1980408
O  18.5499592 16.377488 7.2820408
O  5.6339592 16.377488 5.6339592
O  16.377488 7.2820408 18.5499592
O  16.377488 20.1980408 20.1980408
O  16.377488 18.5499592 7.2820408
O  16.377488 5.6339592 5.6339592
O  9.454512 7.2820408 7.2820408
O  9.454512 20.1980408 5.6339592
O  9.454512 18.5499592 18.5499592
O  9.454512 5.6339592 20.1980408
O  9.454512 18.5499592 7.2820408
O  9.454512 5.6339592 5.6339592
O  9.454512 7.2820408 18.5499592
O  9.454512 20.1980408 20.1980408
O  16.377488 18.5499592 18.5499592
O  16.377488 5.6339592 20.1980408
O  16.377488 7.2820408 7.2820408
O  16.377488 20.1980408 5.6339592
C  6.458 6.458 2.8751016
C  19.374 6.458 2.8751016
C  19.374 19.374 2.8751016
C  6.458 19.374 2.8751016
C  6.458 19.374 22.9568984
C  19.374 19.374 22.9568984
C  19.374 6.458 22.9568984
C  6.458 6.458 22.9568984
C  2.8751016 6.458 6.458
C  2.8751016 19.374 6.458
C  2.8751016 19.374 19.374
C  2.8751016 6.458 19.374
C  22.9568984 6.458 19.374
C  22.9568984 19.374 19.374
C  22.9568984 19.374 6.458
C  22.9568984 6.458 6.458
C  19.374 2.8751016 6.458
C  6.458 2.8751016 6.458
C  6.458 2.8751016 19.374
C  19.374 2.8751016 19.374
C  19.374 22.9568984 19.374
C  6.458 22.9568984 19.374
C  6.458 22.9568984 6.458
C  19.374 22.9568984 6.458
C  6.458 19.374 15.7911016
C  19.374 19.374 15.7911016
C  19.374 6.458 15.7911016
C  6.458 6.458 15.7911016
C  6.458 6.458 10.0408984
C  19.374 6.458 10.0408984
C  19.374 19.374 10.0408984
C  6.458 19.374 10.0408984
C  19.374 15.7911016 19.374
C  6.458 15.7911016 19.374
C  6.458 15.7911016 6.458
C  19.374 15.7911016 6.458
C  19.374 10.0408984 6.458
C  6.458 10.0408984 6.458
C  6.458 10.0408984 19.374
C  19.374 10.0408984 19.374
C  15.7911016 6.458 19.374
C  15.7911016 19.374 19.374
C  15.7911016 19.374 6.458
C  15.7911016 6.458 6.458
C  10.0408984 6.458 6.458
C  10.0408984 19.374 6.458
C  10.0408984 19.374 19.374
C  10.0408984 6.458 19.374
C  6.458 6.458 1.3897616
C  19.374 6.458 1.3897616
C  19.374 19.374 1.3897616
C  6.458 19.374 1.3897616
C  6.458 19.374 24.4422384
C  19.374 19.374 24.4422384
C  19.374 6.458 24.4422384
C  6.458 6.458 24.4422384
C  1.3897616 6.458 6.458
C  1.3897616 19.374 6.458
C  1.3897616 19.374 19.374
C  1.3897616 6.458 19.374
C  24.4422384 6.458 19.374
C  24.4422384 19.374 19.374
C  24.4422384 19.374 6.458
C  24.4422384 6.458 6.458
C  19.374 1.3897616 6.458
C  6.458 1.3897616 6.458
C  6.458 1.3897616 19.374
C  19.374 1.3897616 19.374
C  19.374 24.4422384 19.374
C  6.458 24.4422384 19.374
C  6.458 24.4422384 6.458
C  19.374 24.4422384 6.458
C  6.458 19.374 14.3057616
C  19.374 19.374 14.3057616
C  19.374 6.458 14.3057616
C  6.458 6.458 14.3057616
C  6.458 6.458 11.5262384
C  19.374 6.458 11.5262384
C  19.374 19.374 11.5262384
C  6.458 19.374 11.5262384
C  19.374 14.3057616 19.374
C  6.458 14.3057616 19.374
C  6.458 14.3057616 6.458
C  19.374 14.3057616 6.458
C  19.374 11.5262384 6.458
C  6.458 11.5262384 6.458
C  6.458 11.5262384 19.374
C  19.374 11.5262384 19.374
C  14.3057616 6.458 19.374
C  14.3057616 19.374 19.374
C  14.3057616 19.374 6.458
C  14.3057616 6.458 6.458
C  11.5262384 6.458 6.458
C  11.5262384 19.374 6.458
C  11.5262384 19.374 19.374
C  11.5262384 6.458 19.374
C  7.3078728 5.6081272 0.6948808
C  20.2238728 7.3078728 0.6948808
C  18.5241272 20.2238728 0.6948808
C  5.6081272 18.5241272 0.6948808
C  7.3078728 20.2238728 25.1371192
C  20.2238728 18.5241272 25.1371192
C  18.5241272 5.6081272 25.1371192
C  5.6081272 7.3078728 25.1371192
C  0.6948808 7.3078728 5.6081272
C  0.6948808 20.2238728 7.3078728
C  0.6948808 18.5241272 20.2238728
C  0.6948808 5.6081272 18.5241272
C  25.1371192 7.3078728 20.2238728
C  25.1371192 20.2238728 18.5241272
C  25.1371192 18.5241272 5.6081272
C  25.1371192 5.6081272 7.3078728
C  18.5241272 0.6948808 5.6081272
C  5.6081272 0.6948808 7.3078728
C  7.3078728 0.6948808 20.2238728
C  20.2238728 0.6948808 18.5241272
C  18.5241272 25.1371192 20.2238728
C  5.6081272 25.1371192 18.5241272
C  7.3078728 25.1371192 5.6081272
C  20.2238728 25.1371192 7.3078728
C  18.5241272 20.2238728 25.1371192
C  5.6081272 18.5241272 25.1371192
C  7.3078728 5.6081272 25.1371192
C  20.2238728 7.3078728 25.1371192
C  18.5241272 5.6081272 0.6948808
C  5.6081272 7.3078728 0.6948808
C  7.3078728 20.2238728 0.6948808
C  20.2238728 18.5241272 0.6948808
C  25.1371192 18.5241272 20.2238728
C  25.1371192 5.6081272 18.5241272
C  25.1371192 7.3078728 5.6081272
C  25.1371192 20.2238728 7.3078728
C  0.6948808 18.5241272 5.6081272
C  0.6948808 5.6081272 7.3078728
C  0.6948808 7.3078728 20.2238728
C  0.6948808 20.2238728 18.5241272
C  7.3078728 25.1371192 20.2238728
C  20.2238728 25.1371192 18.5241272
C  18.5241272 25.1371192 5.6081272
C  5.6081272 25.1371192 7.3078728
C  7.3078728 0.6948808 5.6081272
C  20.2238728 0.6948808 7.3078728
C  18.5241272 0.6948808 20.2238728
C  5.6081272 0.6948808 18.5241272
C  7.3078728 18.5241272 13.6108808
C  20.2238728 20.2238728 13.6108808
C  18.5241272 7.3078728 13.6108808
C  5.6081272 5.6081272 13.6108808
C  7.3078728 7.3078728 12.2211192
C  20.2238728 5.6081272 12.2211192
C  18.5241272 18.5241272 12.2211192
C  5.6081272 20.2238728 12.2211192
C  18.5241272 13.6108808 18.5241272
C  5.6081272 13.6108808 20.2238728
C  7.3078728 13.6108808 7.3078728
C  20.2238728 13.6108808 5.6081272
C  18.5241272 12.2211192 7.3078728
C  5.6081272 12.2211192 5.6081272
C  7.3078728 12.2211192 18.5241272
C  20.2238728 12.2211192 20.2238728
C  18.5241272 7.3078728 12.2211192
C  5.6081272 5.6081272 12.2211192
C  7.3078728 18.5241272 12.2211192
C  20.2238728 20.2238728 12.2211192
C  18.5241272 18.5241272 13.6108808
C  5.6081272 20.2238728 13.6108808
C  7.3078728 7.3078728 13.6108808
C  20.2238728 5.6081272 13.6108808
C  7.3078728 12.2211192 7.3078728
C  20.2238728 12.2211192 5.6081272
C  18.5241272 12.2211192 18.5241272
C  5.6081272 12.2211192 20.2238728
C  7.3078728 13.6108808 18.5241272
C  20.2238728 13.6108808 20.2238728
C  18.5241272 13.6108808 7.3078728
C  5.6081272 13.6108808 5.6081272
C  13.6108808 7.3078728 18.5241272
C  13.6108808 20.2238728 20.2238728
C  13.6108808 18.5241272 7.3078728
C  13.6108808 5.6081272 5.6081272
C  12.2211192 7.3078728 7.3078728
C  12.2211192 20.2238728 5.6081272
C  12.2211192 18.5241272 18.5241272
C  12.2211192 5.6081272 20.2238728
C  12.2211192 18.5241272 7.3078728
C  12.2211192 5.6081272 5.6081272
C  12.2211192 7.3078728 18.5241272
C  12.2211192 20.2238728 20.2238728
C  13.6108808 18.5241272 18.5241272
C  13.6108808 5.6081272 20.2238728
C  13.6108808 7.3078728 7.3078728
C  13.6108808 20.2238728 5.6081272
H 7.8761768 5.0398232 1.1572736
H 20.7921768 7.8761768 1.1572736
H 17.9558232 20.7921768 1.1572736
H 5.0398232 17.9558232 1.1572736
H 7.8761768 20.7921768 24.6747264
H 20.7921768 17.9558232 24.6747264
H 17.9558232 5.0398232 24.6747264
H 5.0398232 7.8761768 24.6747264
H 1.1572736 7.8761768 5.0398232
H 1.1572736 20.7921768 7.8761768
H 1.1572736 17.9558232 20.7921768
H 1.1572736 5.0398232 17.9558232
H 24.6747264 7.8761768 20.7921768
H 24.6747264 20.7921768 17.9558232
H 24.6747264 17.9558232 5.0398232
H 24.6747264 5.0398232 7.8761768
H 17.9558232 1.1572736 5.0398232
H 5.0398232 1.1572736 7.8761768
H 7.8761768 1.1572736 20.7921768
H 20.7921768 1.1572736 17.9558232
H 17.9558232 24.6747264 20.7921768
H 5.0398232 24.6747264 17.9558232
H 7.8761768 24.6747264 5.0398232
H 20.7921768 24.6747264 7.8761768
H 17.9558232 20.7921768 24.6747264
H 5.0398232 17.9558232 24.6747264
H 7.8761768 5.0398232 24.6747264
H 20.7921768 7.8761768 24.6747264
H 17.9558232 5.0398232 1.1572736
H 5.0398232 7.8761768 1.1572736
H 7.8761768 20.7921768 1.1572736
H 20.7921768 17.9558232 1.1572736
H 24.6747264 17.9558232 20.7921768
H 24.6747264 5.0398232 17.9558232
H 24.6747264 7.8761768 5.0398232
H 24.6747264 20.7921768 7.8761768
H 1.1572736 17.9558232 5.0398232
H 1.1572736 5.0398232 7.8761768
H 1.1572736 7.8761768 20.7921768
H 1.1572736 20.7921768 17.9558232
H 7.8761768 24.6747264 20.7921768
H 20.7921768 24.6747264 17.9558232
H 17.9558232 24.6747264 5.0398232
H 5.0398232 24.6747264 7.8761768
H 7.8761768 1.1572736 5.0398232
H 20.7921768 1.1572736 7.8761768
H 17.9558232 1.1572736 20.7921768
H 5.0398232 1.1572736 17.9558232
H 7.8761768 17.9558232 14.0732736
H 20.7921768 20.7921768 14.0732736
H 17.9558232 7.8761768 14.0732736
H 5.0398232 5.0398232 14.0732736
H 7.8761768 7.8761768 11.7587264
H 20.7921768 5.0398232 11.7587264
H 17.9558232 17.9558232 11.7587264
H 5.0398232 20.7921768 11.7587264
H 17.9558232 14.0732736 17.9558232
H 5.0398232 14.0732736 20.7921768
H 7.8761768 14.0732736 7.8761768
H 20.7921768 14.0732736 5.0398232
H 17.9558232 11.7587264 7.8761768
H 5.0398232 11.7587264 5.0398232
H 7.8761768 11.7587264 17.9558232
H 20.7921768 11.7587264 20.7921768
H 17.9558232 7.8761768 11.7587264
H 5.0398232 5.0398232 11.7587264
H 7.8761768 17.9558232 11.7587264
H 20.7921768 20.7921768 11.7587264
H 17.9558232 17.9558232 14.0732736
H 5.0398232 20.7921768 14.0732736
H 7.8761768 7.8761768 14.0732736
H 20.7921768 5.0398232 14.0732736
H 7.8761768 11.7587264 7.8761768
H 20.7921768 11.7587264 5.0398232
H 17.9558232 11.7587264 17.9558232
H 5.0398232 11.7587264 20.7921768
H 7.8761768 14.0732736 17.9558232
H 20.7921768 14.0732736 20.7921768
H 17.9558232 14.0732736 7.8761768
H 5.0398232 14.0732736 5.0398232
H 14.0732736 7.8761768 17.9558232
H 14.0732736 20.7921768 20.7921768
H 14.0732736 17.9558232 7.8761768
H 14.0732736 5.0398232 5.0398232
H 11.7587264 7.8761768 7.8761768
H 11.7587264 20.7921768 5.0398232
H 11.7587264 17.9558232 17.9558232
H 11.7587264 5.0398232 20.7921768
H 11.7587264 17.9558232 7.8761768
H 11.7587264 5.0398232 5.0398232
H 11.7587264 7.8761768 17.9558232
H 11.7587264 20.7921768 20.7921768
H 14.0732736 17.9558232 17.9558232
H 14.0732736 5.0398232 20.7921768
H 14.0732736 7.8761768 7.8761768
H 14.0732736 20.7921768 5.0398232
